100
334
140
47
493
258
221
304
349
456
71
364
203
303
295
301
221
211
491
410
216
427
497
236
311
438
127
447
46
225
372
115
167
387
228
341
189
10
123
424
160
477
445
497
292
291
307
33
405
197
13
279
205
239
477
11
301
492
383
73
193
474
163
390
405
231
322
28
221
160
352
13
358
287
91
393
350
164
141
389
388
183
255
191
449
320
112
321
244
498
414
199
29
13
119
332
419
310
98
470
